c colouring generated by benchmark framework
p edge 211 3541
v 1 14
v 2 24
v 3 0
v 4 5
v 5 25
v 6 17
v 7 13
v 8 3
v 9 2
v 10 1
v 11 19
v 12 28
v 13 15
v 14 16
v 15 4
v 16 22
v 17 19
v 18 13
v 19 25
v 20 7
v 21 11
v 22 4
v 23 9
v 24 2
v 25 6
v 26 1
v 27 3
v 28 0
v 29 23
v 30 27
v 31 8
v 32 15
v 33 21
v 34 1
v 35 24
v 36 10
v 37 29
v 38 13
v 39 7
v 40 6
v 41 7
v 42 5
v 43 9
v 44 24
v 45 12
v 46 28
v 47 7
v 48 20
v 49 20
v 50 23
v 51 8
v 52 18
v 53 25
v 54 6
v 55 23
v 56 23
v 57 20
v 58 17
v 59 11
v 60 18
v 61 11
v 62 20
v 63 5
v 64 18
v 65 5
v 66 20
v 67 5
v 68 12
v 69 10
v 70 8
v 71 8
v 72 7
v 73 7
v 74 7
v 75 7
v 76 7
v 77 6
v 78 6
v 79 18
v 80 23
v 81 17
v 82 6
v 83 20
v 84 21
v 85 21
v 86 26
v 87 14
v 88 10
v 89 15
v 90 8
v 91 6
v 92 26
v 93 27
v 94 11
v 95 26
v 96 6
v 97 8
v 98 18
v 99 6
v 100 2
v 101 6
v 102 8
v 103 29
v 104 14
v 105 11
v 106 11
v 107 18
v 108 11
v 109 11
v 110 11
v 111 18
v 112 19
v 113 28
v 114 29
v 115 26
v 116 4
v 117 18
v 118 23
v 119 26
v 120 23
v 121 26
v 122 23
v 123 11
v 124 23
v 125 18
v 126 23
v 127 23
v 128 6
v 129 11
v 130 26
v 131 20
v 132 6
v 133 12
v 134 9
v 135 11
v 136 18
v 137 7
v 138 8
v 139 23
v 140 21
v 141 20
v 142 17
v 143 18
v 144 16
v 145 27
v 146 23
v 147 23
v 148 23
v 149 12
v 150 12
v 151 8
v 152 8
v 153 9
v 154 11
v 155 12
v 156 11
v 157 9
v 158 19
v 159 6
v 160 24
v 161 17
v 162 23
v 163 26
v 164 23
v 165 23
v 166 20
v 167 21
v 168 21
v 169 18
v 170 21
v 171 7
v 172 21
v 173 23
v 174 26
v 175 23
v 176 26
v 177 26
v 178 27
v 179 27
v 180 26
v 181 27
v 182 23
v 183 12
v 184 12
v 185 12
v 186 12
v 187 4
v 188 10
v 189 9
v 190 23
v 191 21
v 192 29
v 193 20
v 194 26
v 195 26
v 196 27
v 197 26
v 198 27
v 199 26
v 200 26
v 201 23
v 202 23
v 203 1
v 204 27
v 205 21
v 206 21
v 207 26
v 208 20
v 209 7
v 210 11
v 211 18
